\ Generated by MPModelProtoExporter
\   Name             : 
\   Format           : Free
\   Constraints      : 148
\   Variables        : 20
\     Binary         : 0
\     Integer        : 0
\     Continuous     : 20
Maximize
 Obj: -3 _1 -2 _2 -1 _3 -1 _4 +1 _0AN_1 +1 _0CI_1_2 +1 _0IT_3 +1 _0LT_4 +1 _0ML_2_4 +1 _0N_1 +1 _0PI_1_3 +1 _0T_2 
Subject to
 Mono_Ineq.__H(0AN_1)____H(0AN): -1 _0AN +1 _0AN_1  >= 0
 Mono_Ineq.__H(0AN_1)____H(1): -1 _1 +1 _0AN_1  >= 0
 Additivity_Ineq.__H(0AN_1)____H(0AN)___H(1): -1 _1 -1 _0AN +1 _0AN_1  <= 0
 Mono_Ineq.__H(0CI_1_2)____H(0CI): -1 _0CI +1 _0CI_1_2  >= 0
 Mono_Ineq.__H(0CI_1_2)____H(2): -1 _2 +1 _0CI_1_2  >= 0
 Mono_Ineq.__H(0CI_1_2)____H(1): -1 _1 +1 _0CI_1_2  >= 0
 Additivity_Ineq.__H(0CI_1_2)____H(0CI)___H(2)___H(1): -1 _1 -1 _2 -1 _0CI +1 _0CI_1_2  <= 0
 Mono_Ineq.__H(0IT_3)____H(0IT): -1 _0IT +1 _0IT_3  >= 0
 Mono_Ineq.__H(0IT_3)____H(3): -1 _3 +1 _0IT_3  >= 0
 Additivity_Ineq.__H(0IT_3)____H(0IT)___H(3): -1 _3 -1 _0IT +1 _0IT_3  <= 0
 Mono_Ineq.__H(0LT_4)____H(0LT): -1 _0LT +1 _0LT_4  >= 0
 Mono_Ineq.__H(0LT_4)____H(4): -1 _4 +1 _0LT_4  >= 0
 Additivity_Ineq.__H(0LT_4)____H(0LT)___H(4): -1 _4 -1 _0LT +1 _0LT_4  <= 0
 Mono_Ineq.__H(0ML_2_4)____H(0ML): -1 _0ML +1 _0ML_2_4  >= 0
 Mono_Ineq.__H(0ML_2_4)____H(2): -1 _2 +1 _0ML_2_4  >= 0
 Mono_Ineq.__H(0ML_2_4)____H(4): -1 _4 +1 _0ML_2_4  >= 0
 Additivity_Ineq.__H(0ML_2_4)____H(0ML)___H(2)___H(4): -1 _2 -1 _4 -1 _0ML +1 _0ML_2_4  <= 0
 Mono_Ineq.__H(0N_1)____H(0N): -1 _0N +1 _0N_1  >= 0
 Mono_Ineq.__H(0N_1)____H(1): -1 _1 +1 _0N_1  >= 0
 Additivity_Ineq.__H(0N_1)____H(0N)___H(1): -1 _1 -1 _0N +1 _0N_1  <= 0
 Mono_Ineq.__H(0PI_1_3)____H(0PI): -1 _0PI +1 _0PI_1_3  >= 0
 Mono_Ineq.__H(0PI_1_3)____H(3): -1 _3 +1 _0PI_1_3  >= 0
 Mono_Ineq.__H(0PI_1_3)____H(1): -1 _1 +1 _0PI_1_3  >= 0
 Additivity_Ineq.__H(0PI_1_3)____H(0PI)___H(3)___H(1): -1 _1 -1 _3 -1 _0PI +1 _0PI_1_3  <= 0
 Mono_Ineq.__H(0T_2)____H(0T): -1 _0T +1 _0T_2  >= 0
 Mono_Ineq.__H(0T_2)____H(2): -1 _2 +1 _0T_2  >= 0
 Additivity_Ineq.__H(0T_2)____H(0T)___H(2): -1 _2 -1 _0T +1 _0T_2  <= 0
 Statistics_Ineq._1__1___h(0AN_1)___0___h(1)____1___log2(901343.0)_|_1_|_AN.PERSON_ID: +1 _0AN_1  <= 19.7817
 Statistics_Ineq._2__2___h(0AN_1)___1___h(1)____2___log2(1492.0499321403422)_|_2_|_AN.PERSON_ID: -1 _1 +2 _0AN_1  <= 21.0862
 Statistics_Ineq._3__3___h(0AN_1)___2___h(1)____3___log2(231.94083533918547)_|_3_|_AN.PERSON_ID: -2 _1 +3 _0AN_1  <= 23.5728
 Statistics_Ineq._4__4___h(0AN_1)___3___h(1)____4___log2(120.5727659495675)_|_4_|_AN.PERSON_ID: -3 _1 +4 _0AN_1  <= 27.655
 Statistics_Ineq._5__5___h(0AN_1)___4___h(1)____5___log2(96.67418823191883)_|_5_|_AN.PERSON_ID: -4 _1 +5 _0AN_1  <= 32.9753
 Statistics_Ineq._6__6___h(0AN_1)___5___h(1)____6___log2(88.71276440457329)_|_6_|_AN.PERSON_ID: -5 _1 +6 _0AN_1  <= 38.8264
 Statistics_Ineq._7__7___h(0AN_1)___6___h(1)____7___log2(85.01564334837424)_|_7_|_AN.PERSON_ID: -6 _1 +7 _0AN_1  <= 44.8676
 Statistics_Ineq._8__8___h(0AN_1)___7___h(1)____8___log2(82.89092942293715)_|_8_|_AN.PERSON_ID: -7 _1 +8 _0AN_1  <= 50.9851
 Statistics_Ineq._9__9___h(0AN_1)___8___h(1)____9___log2(81.5030202322851)_|_9_|_AN.PERSON_ID: -8 _1 +9 _0AN_1  <= 57.139
 Statistics_Ineq._10__10___h(0AN_1)___9___h(1)____10___log2(80.521603766241)_|_10_|_AN.PERSON_ID: -9 _1 +10 _0AN_1  <= 63.313
 Statistics_Ineq._11__h(0AN_1)___h(1)____log2(76.0)_|_inf_|_AN.PERSON_ID: -1 _1 +1 _0AN_1  <= 6.24793
 Statistics_Ineq._12__1___h(0CI_1_2)___0___h(2)____1___log2(2123104.0)_|_1_|_CI.MOVIE_ID: +1 _0CI_1_2  <= 21.0177
 Statistics_Ineq._13__2___h(0CI_1_2)___1___h(2)____2___log2(18012.576495326815)_|_2_|_CI.MOVIE_ID: -1 _2 +2 _0CI_1_2  <= 28.2734
 Statistics_Ineq._14__3___h(0CI_1_2)___2___h(2)____3___log2(4203.490117647016)_|_3_|_CI.MOVIE_ID: -2 _2 +3 _0CI_1_2  <= 36.1121
 Statistics_Ineq._15__4___h(0CI_1_2)___3___h(2)____4___log2(2500.597604288407)_|_4_|_CI.MOVIE_ID: -3 _2 +4 _0CI_1_2  <= 45.1522
 Statistics_Ineq._16__5___h(0CI_1_2)___4___h(2)____5___log2(2119.6172913785044)_|_5_|_CI.MOVIE_ID: -4 _2 +5 _0CI_1_2  <= 55.2479
 Statistics_Ineq._17__6___h(0CI_1_2)___5___h(2)____6___log2(1987.716561408109)_|_6_|_CI.MOVIE_ID: -5 _2 +6 _0CI_1_2  <= 65.7414
 Statistics_Ineq._18__7___h(0CI_1_2)___6___h(2)____7___log2(1921.0720393443792)_|_7_|_CI.MOVIE_ID: -6 _2 +7 _0CI_1_2  <= 76.3539
 Statistics_Ineq._19__8___h(0CI_1_2)___7___h(2)____8___log2(1879.745273878068)_|_8_|_CI.MOVIE_ID: -7 _2 +8 _0CI_1_2  <= 87.0106
 Statistics_Ineq._20__9___h(0CI_1_2)___8___h(2)____9___log2(1851.259361718555)_|_9_|_CI.MOVIE_ID: -8 _2 +9 _0CI_1_2  <= 97.6886
 Statistics_Ineq._21__10___h(0CI_1_2)___9___h(2)____10___log2(1830.377763274986)_|_10_|_CI.MOVIE_ID: -9 _2 +10 _0CI_1_2  <= 108.379
 Statistics_Ineq._22__h(0CI_1_2)___h(2)____log2(1741.0)_|_inf_|_CI.MOVIE_ID: -1 _2 +1 _0CI_1_2  <= 10.7657
 Statistics_Ineq._23__1___h(0CI_1_2)___0___h(1)____1___log2(32268317.0)_|_1_|_CI.PERSON_ID: +1 _0CI_1_2  <= 24.9436
 Statistics_Ineq._24__2___h(0CI_1_2)___1___h(1)____2___log2(98093.71828511752)_|_2_|_CI.PERSON_ID: -1 _1 +2 _0CI_1_2  <= 33.1637
 Statistics_Ineq._25__3___h(0CI_1_2)___2___h(1)____3___log2(25134.928965133528)_|_3_|_CI.PERSON_ID: -2 _1 +3 _0CI_1_2  <= 43.8522
 Statistics_Ineq._26__4___h(0CI_1_2)___3___h(1)____4___log2(15791.902421458257)_|_4_|_CI.PERSON_ID: -3 _1 +4 _0CI_1_2  <= 55.7876
 Statistics_Ineq._27__5___h(0CI_1_2)___4___h(1)____5___log2(12971.732840001827)_|_5_|_CI.PERSON_ID: -4 _1 +5 _0CI_1_2  <= 68.3154
 Statistics_Ineq._28__6___h(0CI_1_2)___5___h(1)____6___log2(11781.748943575585)_|_6_|_CI.PERSON_ID: -5 _1 +6 _0CI_1_2  <= 81.1456
 Statistics_Ineq._29__7___h(0CI_1_2)___6___h(1)____7___log2(11182.212762251316)_|_7_|_CI.PERSON_ID: -6 _1 +7 _0CI_1_2  <= 94.1424
 Statistics_Ineq._30__8___h(0CI_1_2)___7___h(1)____8___log2(10845.907300663903)_|_8_|_CI.PERSON_ID: -7 _1 +8 _0CI_1_2  <= 107.239
 Statistics_Ineq._31__9___h(0CI_1_2)___8___h(1)____9___log2(10643.766168601067)_|_9_|_CI.PERSON_ID: -8 _1 +9 _0CI_1_2  <= 120.399
 Statistics_Ineq._32__10___h(0CI_1_2)___9___h(1)____10___log2(10516.456582958986)_|_10_|_CI.PERSON_ID: -9 _1 +10 _0CI_1_2  <= 133.604
 Statistics_Ineq._33__h(0CI_1_2)___h(1)____log2(10249.0)_|_inf_|_CI.PERSON_ID: -1 _1 +1 _0CI_1_2  <= 13.3232
 Statistics_Ineq._34__1___h(0IT_3)___0___h(3)____1___log2(32.0)_|_1_|_IT.ID: +1 _0IT_3  <= 5
 Statistics_Ineq._35__2___h(0IT_3)___1___h(3)____2___log2(5.656854249492381)_|_2_|_IT.ID: -1 _3 +2 _0IT_3  <= 5
 Statistics_Ineq._36__3___h(0IT_3)___2___h(3)____3___log2(3.1748021039363987)_|_3_|_IT.ID: -2 _3 +3 _0IT_3  <= 5
 Statistics_Ineq._37__4___h(0IT_3)___3___h(3)____4___log2(2.378414230005442)_|_4_|_IT.ID: -3 _3 +4 _0IT_3  <= 5
 Statistics_Ineq._38__5___h(0IT_3)___4___h(3)____5___log2(2.0)_|_5_|_IT.ID: -4 _3 +5 _0IT_3  <= 5
 Statistics_Ineq._39__6___h(0IT_3)___5___h(3)____6___log2(1.7817974362806785)_|_6_|_IT.ID: -5 _3 +6 _0IT_3  <= 5
 Statistics_Ineq._40__7___h(0IT_3)___6___h(3)____7___log2(1.640670712015276)_|_7_|_IT.ID: -6 _3 +7 _0IT_3  <= 5
 Statistics_Ineq._41__8___h(0IT_3)___7___h(3)____8___log2(1.5422108254079407)_|_8_|_IT.ID: -7 _3 +8 _0IT_3  <= 5
 Statistics_Ineq._42__9___h(0IT_3)___8___h(3)____9___log2(1.4697344922755988)_|_9_|_IT.ID: -8 _3 +9 _0IT_3  <= 5
 Statistics_Ineq._43__10___h(0IT_3)___9___h(3)____10___log2(1.4142135623730951)_|_10_|_IT.ID: -9 _3 +10 _0IT_3  <= 5
 Statistics_Ineq._44__h(0IT_3)___h(3)____log2(1.0)_|_inf_|_IT.ID: -1 _3 +1 _0IT_3  <= 0
 Statistics_Ineq._45__1___h(0LT_4)___0___h(4)____1___log2(16.0)_|_1_|_LT.ID: +1 _0LT_4  <= 4
 Statistics_Ineq._46__2___h(0LT_4)___1___h(4)____2___log2(4.0)_|_2_|_LT.ID: -1 _4 +2 _0LT_4  <= 4
 Statistics_Ineq._47__3___h(0LT_4)___2___h(4)____3___log2(2.5198420997897464)_|_3_|_LT.ID: -2 _4 +3 _0LT_4  <= 4
 Statistics_Ineq._48__4___h(0LT_4)___3___h(4)____4___log2(2.0)_|_4_|_LT.ID: -3 _4 +4 _0LT_4  <= 4
 Statistics_Ineq._49__5___h(0LT_4)___4___h(4)____5___log2(1.7411011265922482)_|_5_|_LT.ID: -4 _4 +5 _0LT_4  <= 4
 Statistics_Ineq._50__6___h(0LT_4)___5___h(4)____6___log2(1.5874010519681994)_|_6_|_LT.ID: -5 _4 +6 _0LT_4  <= 4
 Statistics_Ineq._51__7___h(0LT_4)___6___h(4)____7___log2(1.4859942891369484)_|_7_|_LT.ID: -6 _4 +7 _0LT_4  <= 4
 Statistics_Ineq._52__8___h(0LT_4)___7___h(4)____8___log2(1.4142135623730951)_|_8_|_LT.ID: -7 _4 +8 _0LT_4  <= 4
 Statistics_Ineq._53__9___h(0LT_4)___8___h(4)____9___log2(1.360790000174377)_|_9_|_LT.ID: -8 _4 +9 _0LT_4  <= 4
 Statistics_Ineq._54__10___h(0LT_4)___9___h(4)____10___log2(1.3195079107728942)_|_10_|_LT.ID: -9 _4 +10 _0LT_4  <= 4
 Statistics_Ineq._55__h(0LT_4)___h(4)____log2(1.0)_|_inf_|_LT.ID: -1 _4 +1 _0LT_4  <= 0
 Statistics_Ineq._56__1___h(0ML_2_4)___0___h(2)____1___log2(29997.0)_|_1_|_ML.LINKED_MOVIE_ID: +1 _0ML_2_4  <= 14.8725
 Statistics_Ineq._57__2___h(0ML_2_4)___1___h(2)____2___log2(436.67035621850954)_|_2_|_ML.LINKED_MOVIE_ID: -1 _2 +2 _0ML_2_4  <= 17.5408
 Statistics_Ineq._58__3___h(0ML_2_4)___2___h(2)____3___log2(179.40920499269947)_|_3_|_ML.LINKED_MOVIE_ID: -2 _2 +3 _0ML_2_4  <= 22.4613
 Statistics_Ineq._59__4___h(0ML_2_4)___3___h(2)____4___log2(143.90136544077282)_|_4_|_ML.LINKED_MOVIE_ID: -3 _2 +4 _0ML_2_4  <= 28.6757
 Statistics_Ineq._60__5___h(0ML_2_4)___4___h(2)____5___log2(135.4003350371657)_|_5_|_ML.LINKED_MOVIE_ID: -4 _2 +5 _0ML_2_4  <= 35.4054
 Statistics_Ineq._61__6___h(0ML_2_4)___5___h(2)____6___log2(132.73338716169695)_|_6_|_ML.LINKED_MOVIE_ID: -5 _2 +6 _0ML_2_4  <= 42.3143
 Statistics_Ineq._62__7___h(0ML_2_4)___6___h(2)____7___log2(131.74029994079464)_|_7_|_ML.LINKED_MOVIE_ID: -6 _2 +7 _0ML_2_4  <= 49.2909
 Statistics_Ineq._63__8___h(0ML_2_4)___7___h(2)____8___log2(131.33154793717202)_|_8_|_ML.LINKED_MOVIE_ID: -7 _2 +8 _0ML_2_4  <= 56.2966
 Statistics_Ineq._64__9___h(0ML_2_4)___8___h(2)____9___log2(131.15311280660916)_|_9_|_ML.LINKED_MOVIE_ID: -8 _2 +9 _0ML_2_4  <= 63.316
 Statistics_Ineq._65__10___h(0ML_2_4)___9___h(2)____10___log2(131.0722609905116)_|_10_|_ML.LINKED_MOVIE_ID: -9 _2 +10 _0ML_2_4  <= 70.3422
 Statistics_Ineq._66__h(0ML_2_4)___h(2)____log2(131.0)_|_inf_|_ML.LINKED_MOVIE_ID: -1 _2 +1 _0ML_2_4  <= 7.03342
 Statistics_Ineq._67__1___h(0ML_2_4)___0___h(4)____1___log2(29997.0)_|_1_|_ML.LINK_TYPE_ID: +1 _0ML_2_4  <= 14.8725
 Statistics_Ineq._68__2___h(0ML_2_4)___1___h(4)____2___log2(12292.900349388667)_|_2_|_ML.LINK_TYPE_ID: -1 _4 +2 _0ML_2_4  <= 27.1711
 Statistics_Ineq._69__3___h(0ML_2_4)___2___h(4)____3___log2(9975.940412766955)_|_3_|_ML.LINK_TYPE_ID: -2 _4 +3 _0ML_2_4  <= 39.8527
 Statistics_Ineq._70__4___h(0ML_2_4)___3___h(4)____4___log2(9226.180008352485)_|_4_|_ML.LINK_TYPE_ID: -3 _4 +4 _0ML_2_4  <= 52.6861
 Statistics_Ineq._71__5___h(0ML_2_4)___4___h(4)____5___log2(8909.028014886519)_|_5_|_ML.LINK_TYPE_ID: -4 _4 +5 _0ML_2_4  <= 65.6053
 Statistics_Ineq._72__6___h(0ML_2_4)___5___h(4)____6___log2(8758.238819262004)_|_6_|_ML.LINK_TYPE_ID: -5 _4 +6 _0ML_2_4  <= 78.5786
 Statistics_Ineq._73__7___h(0ML_2_4)___6___h(4)____7___log2(8681.96177837495)_|_7_|_ML.LINK_TYPE_ID: -6 _4 +7 _0ML_2_4  <= 91.5866
 Statistics_Ineq._74__8___h(0ML_2_4)___7___h(4)____8___log2(8641.889460301132)_|_8_|_ML.LINK_TYPE_ID: -7 _4 +8 _0ML_2_4  <= 104.617
 Statistics_Ineq._75__9___h(0ML_2_4)___8___h(4)____9___log2(8620.288819110365)_|_9_|_ML.LINK_TYPE_ID: -8 _4 +9 _0ML_2_4  <= 117.662
 Statistics_Ineq._76__10___h(0ML_2_4)___9___h(4)____10___log2(8608.422118955614)_|_10_|_ML.LINK_TYPE_ID: -9 _4 +10 _0ML_2_4  <= 130.715
 Statistics_Ineq._77__h(0ML_2_4)___h(4)____log2(8593.0)_|_inf_|_ML.LINK_TYPE_ID: -1 _4 +1 _0ML_2_4  <= 13.0689
 Statistics_Ineq._78__1___h(0N_1)___0___h(1)____1___log2(1048576.0)_|_1_|_N.ID: +1 _0N_1  <= 20
 Statistics_Ineq._79__2___h(0N_1)___1___h(1)____2___log2(1024.0)_|_2_|_N.ID: -1 _1 +2 _0N_1  <= 20
 Statistics_Ineq._80__3___h(0N_1)___2___h(1)____3___log2(101.59366732596474)_|_3_|_N.ID: -2 _1 +3 _0N_1  <= 20
 Statistics_Ineq._81__4___h(0N_1)___3___h(1)____4___log2(32.0)_|_4_|_N.ID: -3 _1 +4 _0N_1  <= 20
 Statistics_Ineq._82__5___h(0N_1)___4___h(1)____5___log2(16.000000000000004)_|_5_|_N.ID: -4 _1 +5 _0N_1  <= 20
 Statistics_Ineq._83__6___h(0N_1)___5___h(1)____6___log2(10.079368399158984)_|_6_|_N.ID: -5 _1 +6 _0N_1  <= 20
 Statistics_Ineq._84__7___h(0N_1)___6___h(1)____7___log2(7.245789314111253)_|_7_|_N.ID: -6 _1 +7 _0N_1  <= 20
 Statistics_Ineq._85__8___h(0N_1)___7___h(1)____8___log2(5.656854249492381)_|_8_|_N.ID: -7 _1 +8 _0N_1  <= 20
 Statistics_Ineq._86__9___h(0N_1)___8___h(1)____9___log2(4.666116158304466)_|_9_|_N.ID: -8 _1 +9 _0N_1  <= 20
 Statistics_Ineq._87__10___h(0N_1)___9___h(1)____10___log2(4.0)_|_10_|_N.ID: -9 _1 +10 _0N_1  <= 20
 Statistics_Ineq._88__h(0N_1)___h(1)____log2(1.0)_|_inf_|_N.ID: -1 _1 +1 _0N_1  <= 0
 Statistics_Ineq._89__1___h(0PI_1_3)___0___h(3)____1___log2(2963664.0)_|_1_|_PI.INFO_TYPE_ID: +1 _0PI_1_3  <= 21.499
 Statistics_Ineq._90__2___h(0PI_1_3)___1___h(3)____2___log2(957472.9789085434)_|_2_|_PI.INFO_TYPE_ID: -1 _3 +2 _0PI_1_3  <= 39.7377
 Statistics_Ineq._91__3___h(0PI_1_3)___2___h(3)____3___log2(740691.6619029364)_|_3_|_PI.INFO_TYPE_ID: -2 _3 +3 _0PI_1_3  <= 58.4955
 Statistics_Ineq._92__4___h(0PI_1_3)___3___h(3)____4___log2(675549.9149488176)_|_4_|_PI.INFO_TYPE_ID: -3 _3 +4 _0PI_1_3  <= 77.4628
 Statistics_Ineq._93__5___h(0PI_1_3)___4___h(3)____5___log2(648398.4305214328)_|_5_|_PI.INFO_TYPE_ID: -4 _3 +5 _0PI_1_3  <= 96.5326
 Statistics_Ineq._94__6___h(0PI_1_3)___5___h(3)____6___log2(635388.4627108338)_|_6_|_PI.INFO_TYPE_ID: -5 _3 +6 _0PI_1_3  <= 115.664
 Statistics_Ineq._95__7___h(0PI_1_3)___6___h(3)____7___log2(628712.6171641252)_|_7_|_PI.INFO_TYPE_ID: -6 _3 +7 _0PI_1_3  <= 134.834
 Statistics_Ineq._96__8___h(0PI_1_3)___7___h(3)____8___log2(625145.8940447068)_|_8_|_PI.INFO_TYPE_ID: -7 _3 +8 _0PI_1_3  <= 154.031
 Statistics_Ineq._97__9___h(0PI_1_3)___8___h(3)____9___log2(623185.2867988476)_|_9_|_PI.INFO_TYPE_ID: -8 _3 +9 _0PI_1_3  <= 173.244
 Statistics_Ineq._98__10___h(0PI_1_3)___9___h(3)____10___log2(622082.8387182453)_|_10_|_PI.INFO_TYPE_ID: -9 _3 +10 _0PI_1_3  <= 192.467
 Statistics_Ineq._99__h(0PI_1_3)___h(3)____log2(620526.0)_|_inf_|_PI.INFO_TYPE_ID: -1 _3 +1 _0PI_1_3  <= 19.2431
 Statistics_Ineq._100__1___h(0PI_1_3)___0___h(1)____1___log2(2963664.0)_|_1_|_PI.PERSON_ID: +1 _0PI_1_3  <= 21.499
 Statistics_Ineq._101__2___h(0PI_1_3)___1___h(1)____2___log2(9599.190590877963)_|_2_|_PI.PERSON_ID: -1 _1 +2 _0PI_1_3  <= 26.4574
 Statistics_Ineq._102__3___h(0PI_1_3)___2___h(1)____3___log2(2838.081361728427)_|_3_|_PI.PERSON_ID: -2 _1 +3 _0PI_1_3  <= 34.4121
 Statistics_Ineq._103__4___h(0PI_1_3)___3___h(1)____4___log2(1981.617384010357)_|_4_|_PI.PERSON_ID: -3 _1 +4 _0PI_1_3  <= 43.8099
 Statistics_Ineq._104__5___h(0PI_1_3)___4___h(1)____5___log2(1730.7578552011062)_|_5_|_PI.PERSON_ID: -4 _1 +5 _0PI_1_3  <= 53.7859
 Statistics_Ineq._105__6___h(0PI_1_3)___5___h(1)____6___log2(1627.200392081491)_|_6_|_PI.PERSON_ID: -5 _1 +6 _0PI_1_3  <= 64.0091
 Statistics_Ineq._106__7___h(0PI_1_3)___6___h(1)____7___log2(1574.717994287556)_|_7_|_PI.PERSON_ID: -6 _1 +7 _0PI_1_3  <= 74.3461
 Statistics_Ineq._107__8___h(0PI_1_3)___7___h(1)____8___log2(1544.349600030331)_|_8_|_PI.PERSON_ID: -7 _1 +8 _0PI_1_3  <= 84.7423
 Statistics_Ineq._108__9___h(0PI_1_3)___8___h(1)____9___log2(1525.1960226414071)_|_9_|_PI.PERSON_ID: -8 _1 +9 _0PI_1_3  <= 95.173
 Statistics_Ineq._109__10___h(0PI_1_3)___9___h(1)____10___log2(1512.4121710251347)_|_10_|_PI.PERSON_ID: -9 _1 +10 _0PI_1_3  <= 105.626
 Statistics_Ineq._110__h(0PI_1_3)___h(1)____log2(1479.0)_|_inf_|_PI.PERSON_ID: -1 _1 +1 _0PI_1_3  <= 10.5304
 Statistics_Ineq._111__1___h(0T_2)___0___h(2)____1___log2(16384.0)_|_1_|_T.ID: +1 _0T_2  <= 14
 Statistics_Ineq._112__2___h(0T_2)___1___h(2)____2___log2(128.0)_|_2_|_T.ID: -1 _2 +2 _0T_2  <= 14
 Statistics_Ineq._113__3___h(0T_2)___2___h(2)____3___log2(25.398416831491186)_|_3_|_T.ID: -2 _2 +3 _0T_2  <= 14
 Statistics_Ineq._114__4___h(0T_2)___3___h(2)____4___log2(11.313708498984761)_|_4_|_T.ID: -3 _2 +4 _0T_2  <= 14
 Statistics_Ineq._115__5___h(0T_2)___4___h(2)____5___log2(6.964404506368994)_|_5_|_T.ID: -4 _2 +5 _0T_2  <= 14
 Statistics_Ineq._116__6___h(0T_2)___5___h(2)____6___log2(5.039684199579492)_|_6_|_T.ID: -5 _2 +6 _0T_2  <= 14
 Statistics_Ineq._117__7___h(0T_2)___6___h(2)____7___log2(3.9999999999999996)_|_7_|_T.ID: -6 _2 +7 _0T_2  <= 14
 Statistics_Ineq._118__8___h(0T_2)___7___h(2)____8___log2(3.363585661014858)_|_8_|_T.ID: -7 _2 +8 _0T_2  <= 14
 Statistics_Ineq._119__9___h(0T_2)___8___h(2)____9___log2(2.9394689845511977)_|_9_|_T.ID: -8 _2 +9 _0T_2  <= 14
 Statistics_Ineq._120__10___h(0T_2)___9___h(2)____10___log2(2.639015821545789)_|_10_|_T.ID: -9 _2 +10 _0T_2  <= 14
 Statistics_Ineq._121__h(0T_2)___h(2)____log2(1.0)_|_inf_|_T.ID: -1 _2 +1 _0T_2  <= 0
Bounds
 0 <= _1
 0 <= _2
 0 <= _3
 0 <= _4
 0 <= _0AN
 0 <= _0AN_1
 0 <= _0CI
 0 <= _0CI_1_2
 0 <= _0IT
 0 <= _0IT_3
 0 <= _0LT
 0 <= _0LT_4
 0 <= _0ML
 0 <= _0ML_2_4
 0 <= _0N
 0 <= _0N_1
 0 <= _0PI
 0 <= _0PI_1_3
 0 <= _0T
 0 <= _0T_2
End
